benchmarks_vrp/CMT3/no_cluster/CMT3_6.vrp
NAME: CMT3_6
TYPE: CVRP
COMMENT: 826.14 - Cluster Nr.6
DIMENSION: 14
CAPACITY: 200
EDGE_WEIGHT_TYPE: EUC_2D
NODE_COORD_TYPE: TWOD_COORDS
NODE_COORD_SECTION: 
10 55 5
7 65 20
5 55 20
13 67 5
1 64 42
12 57 29
8 65 35
4 49 11
6 53 52
3 35 35
11 60 12
2 63 23
14 61 52
9 53 12
DEPOT_SECTION: 
3
-1
DEMAND_SECTION: 
12 18
7 6
3 0
2 2
10 29
1 9
14 3
11 31
9 6
5 19
6 11
13 25
4 18
8 3
EOF
