benchmarks_vrp/CMT3/no_cluster/CMT3_6.tour
NAME: CMT3_6 solution
TYPE: TOUR
TOUR_SECTION:
3 5 9 4 10 13 11 7 2 12 8 1 14 6 -1
-1
EOF